job_count = 22 ;
duration = [|28, 25, 6, 7|24, 28, 7, 8|38, 29, 10, 7|30, 18, 2, 1|4, 9, 6, 5|27, 26, 14, 5|8, 14, 4, 5|26, 24, 5, 6|29, 14, 19, 1|21, 6, 12, 9|22, 27, 12, 5|16, 18, 14, 7|22, 3, 14, 5|16, 26, 7, 6|20, 15, 4, 6|20, 12, 5, 2|36, 12, 13, 5|36, 21, 19, 7|17, 3, 15, 5|14, 6, 11, 6|7, 24, 14, 7|36, 11, 19, 6|] ;
machine_count = 4 ;
cost = [|12, 26, 48, 56|17, 21, 51, 49|19, 33, 30, 64|10, 23, 48, 55|19, 32, 33, 63|14, 27, 50, 75|16, 37, 54, 62|17, 39, 33, 57|18, 22, 37, 74|13, 29, 54, 64|14, 27, 33, 42|13, 24, 58, 50|14, 25, 37, 51|13, 21, 51, 49|17, 30, 41, 56|12, 23, 40, 61|14, 33, 42, 59|12, 34, 41, 48|10, 21, 35, 54|16, 27, 33, 65|13, 26, 56, 61|10, 24, 42, 43|] ;
deadline = [46, 46, 46, 46, 46, 46, 46, 46, 46, 46, 46, 46, 46, 46, 46, 46, 46, 46, 46, 46, 46, 46] ;
release = [0, 0, 0, 0, 0, 0, 0, 0, 0, 0, 0, 0, 0, 0, 0, 0, 0, 0, 0, 0, 0, 0] ;
resource = [|2, 2, 2, 2|3, 3, 3, 3|1, 1, 1, 1|6, 6, 6, 6|4, 4, 4, 4|4, 4, 4, 4|5, 5, 5, 5|2, 2, 2, 2|6, 6, 6, 6|1, 1, 1, 1|6, 6, 6, 6|3, 3, 3, 3|4, 4, 4, 4|9, 9, 9, 9|8, 8, 8, 8|9, 9, 9, 9|4, 4, 4, 4|8, 8, 8, 8|2, 2, 2, 2|4, 4, 4, 4|4, 4, 4, 4|9, 9, 9, 9|] ;
capacities = [10, 10, 10, 10] ;
